Gurobi Optimizer version 9.1.2 build v9.1.2rc0 (linux64)
Thread count: 36 physical cores, 72 logical processors, using up to 32 threads
Optimize a model with 12 rows, 57 columns and 590 nonzeros
Model fingerprint: 0xf32eec78
Model has 47 quadratic constraints
Coefficient statistics:
  Matrix range     [2e-05, 3e+00]
  QMatrix range    [1e+00, 1e+00]
  QLMatrix range   [1e+00, 1e+00]
  Objective range  [8e-03, 7e-01]
  Bounds range     [1e+00, 1e+00]
  RHS range        [1e+00, 1e+00]
Presolve removed 9 rows and 0 columns

Continuous model is non-convex -- solving as a MIP.

Presolve removed 9 rows and 0 columns
Presolve time: 0.00s
Presolved: 189 rows, 57 columns, 443 nonzeros
Presolved model has 47 bilinear constraint(s)
Variable types: 57 continuous, 0 integer (0 binary)

Root relaxation: objective -1.743721e+00, 44 iterations, 0.00 seconds

    Nodes    |    Current Node    |     Objective Bounds      |     Work
 Expl Unexpl |  Obj  Depth IntInf | Incumbent    BestBd   Gap | It/Node Time

     0     0   -1.74372    0   38          -   -1.74372      -     -    0s
H    0     0                       0.6147548   -1.74372   384%     -    0s
     0     0   -1.64739    0    1    0.61475   -1.64739   368%     -    0s
H    0     0                      -1.6450460   -1.64739  0.14%     -    0s
     0     0     cutoff    0        -1.64505   -1.64505  0.00%     -    0s

Cutting planes:
  RLT: 25
  BQP: 3

Explored 1 nodes (76 simplex iterations) in 0.01 seconds
Thread count was 32 (of 72 available processors)

Solution count 2: -1.64505 0.614755 
No other solutions better than -1.64505

Optimal solution found (tolerance 1.00e-04)
Best objective -1.645045978473e+00, best bound -1.645045978473e+00, gap 0.0000%

User-callback calls 78, time in user-callback 0.00 sec
Gurobi Optimizer version 9.1.2 build v9.1.2rc0 (linux64)
Thread count: 36 physical cores, 72 logical processors, using up to 32 threads
Optimize a model with 60 rows, 312 columns and 16100 nonzeros
Model fingerprint: 0x4e98d6fd
Model has 262 quadratic constraints
Coefficient statistics:
  Matrix range     [4e-07, 7e+00]
  QMatrix range    [1e+00, 1e+00]
  QLMatrix range   [1e+00, 1e+00]
  Objective range  [5e-03, 1e+00]
  Bounds range     [1e+00, 1e+00]
  RHS range        [1e+00, 1e+00]
Presolve removed 16 rows and 0 columns

Continuous model is non-convex -- solving as a MIP.

Presolve removed 16 rows and 0 columns
Presolve time: 0.01s
Presolved: 1080 rows, 312 columns, 13135 nonzeros
Presolved model has 262 bilinear constraint(s)
Variable types: 312 continuous, 0 integer (0 binary)

Root relaxation: objective -2.786546e+01, 323 iterations, 0.02 seconds

    Nodes    |    Current Node    |     Objective Bounds      |     Work
 Expl Unexpl |  Obj  Depth IntInf | Incumbent    BestBd   Gap | It/Node Time

     0     0  -27.86546    0  147          -  -27.86546      -     -    0s
     0     0  -26.65556    0   74          -  -26.65556      -     -    0s
     0     0  -26.62500    0   74          -  -26.62500      -     -    0s
     0     0  -26.57512    0   74          -  -26.57512      -     -    0s
     0     0  -26.57088    0   74          -  -26.57088      -     -    0s
     0     0  -26.56600    0   74          -  -26.56600      -     -    0s
     0     0  -26.56571    0   74          -  -26.56571      -     -    0s
     0     0  -26.56389    0   74          -  -26.56389      -     -    0s
     0     0  -26.56255    0   74          -  -26.56255      -     -    0s
     0     0  -26.56175    0   74          -  -26.56175      -     -    0s
     0     0  -26.56173    0   74          -  -26.56173      -     -    0s
     0     0  -26.56163    0   74          -  -26.56163      -     -    0s
     0     0  -26.56052    0   74          -  -26.56052      -     -    0s
     0     0  -26.56040    0   74          -  -26.56040      -     -    0s
     0     0  -26.56033    0   74          -  -26.56033      -     -    0s
     0     0  -26.56030    0   74          -  -26.56030      -     -    0s
     0     0  -26.56021    0   74          -  -26.56021      -     -    0s
     0     2  -26.56021    0   74          -  -26.56021      -     -    0s
* 2140  2073              57     -23.8808854  -25.61141  7.25%  44.0    1s
* 2145  1971              56     -25.0545275  -25.61141  2.22%  43.9    1s
* 2790  1921              58     -25.0838171  -25.51848  1.73%  42.7    2s
* 2903  1878              59     -25.0838333  -25.51848  1.73%  42.5    2s
* 5125   830             105     -25.0848475  -25.51848  1.73%  44.3    3s
* 5129   785             106     -25.0849000  -25.51848  1.73%  44.2    3s
* 5244   727             106     -25.0849014  -25.51848  1.73%  44.0    3s
* 6473   997              87     -25.1672987  -25.51848  1.40%  42.0    4s
* 8187   990              53     -25.1678413  -25.51848  1.39%  40.2    4s
* 8308   985              58     -25.1680105  -25.51848  1.39%  40.0    4s
* 8309   985              58     -25.1680163  -25.51848  1.39%  40.0    4s
* 8311   985              58     -25.1680300  -25.51848  1.39%  40.0    4s
* 8312   985              58     -25.1680305  -25.51848  1.39%  40.0    4s
* 8316   985              58     -25.1680377  -25.51848  1.39%  40.0    4s
* 8317   985              58     -25.1680398  -25.51848  1.39%  40.0    4s
  9725   900  -25.20092   26   31  -25.16804  -25.35844  0.76%  38.5    5s
*12046  1109              61     -25.1680493  -25.30188  0.53%  35.8    5s
*12047  1109              61     -25.1680856  -25.30188  0.53%  35.8    5s
*12275  1271              59     -25.1685565  -25.30188  0.53%  35.5    5s
*12766  1429              77     -25.1688419  -25.26839  0.40%  34.9    5s
*12770  1429              76     -25.1692969  -25.26839  0.39%  34.9    5s
*13213  1582              99     -25.1694745  -25.25622  0.34%  34.3    5s
*13214  1582              99     -25.1694752  -25.25622  0.34%  34.3    5s
*13221  1582              97     -25.1695434  -25.25622  0.34%  34.3    5s
*13266  1582              73     -25.1895294  -25.25622  0.26%  34.2    5s
*13267  1582              73     -25.1895299  -25.25622  0.26%  34.2    5s
*15049  1431              65     -25.1904549  -25.21532  0.10%  32.2    6s
*16259  1763              69     -25.1905019  -25.20420  0.05%  30.7    6s
*16371  1763              74     -25.1907526  -25.20336  0.05%  30.5    6s
*16520  1763              73     -25.1915326  -25.20336  0.05%  30.4    6s
*16521  1763              72     -25.1917333  -25.20336  0.05%  30.4    6s
*16989  1763              78     -25.1918098  -25.20336  0.05%  29.8    6s
*16990  1763              77     -25.1918804  -25.20336  0.05%  29.8    6s
*17043  1904              65     -25.1919559  -25.20129  0.04%  29.7    6s
*17269  1904              74     -25.1924661  -25.20129  0.04%  29.4    6s
*17636  1904              74     -25.1926180  -25.20129  0.03%  28.9    6s
*18009  1886              74     -25.1926784  -25.19935  0.03%  28.5    6s
*18010  1886              74     -25.1926902  -25.19935  0.03%  28.5    6s
*18014  1886              74     -25.1927055  -25.19935  0.03%  28.5    6s
*18018  1886              76     -25.1927083  -25.19935  0.03%  28.5    6s
*18284  1886              67     -25.1928143  -25.19935  0.03%  28.2    6s
*18334  1886              69     -25.1928219  -25.19935  0.03%  28.2    6s
*18339  1886              69     -25.1928295  -25.19935  0.03%  28.2    6s
*18629  1886              62     -25.1929343  -25.19935  0.03%  27.8    6s
*18824  1908              69     -25.1930212  -25.19797  0.02%  27.6    6s
*18885  1908              64     -25.1938049  -25.19687  0.01%  27.6    6s
*19510  1908              61     -25.1938397  -25.19610  0.01%  26.9    6s

Explored 19762 nodes (526847 simplex iterations) in 6.77 seconds
Thread count was 32 (of 72 available processors)

Solution count 10: -25.1938 -25.1938 -25.193 ... -25.1927

Optimal solution found (tolerance 1.00e-04)
Best objective -2.519383966155e+01, best bound -2.519609538925e+01, gap 0.0090%

User-callback calls 40587, time in user-callback 0.01 sec



objective value: -25.193839661549603
objective bound: -25.196095389247308
x_opt: [1.0, 1.0, 0.0, 0.4026607552346785, 0.0, 0.0, 1.0, 0.0, 0.0, 0.0, 1.0, 0.0, 1.0, 1.0, 0.19759085715373098, 1.0, 0.0, 1.0, 0.0, 0.0, 1.0, 0.6624263670724297, 0.0, 0.816066218261329, 0.0, 0.773320006504548, 0.0, 1.0, 0.0, 0.0, 1.0, 0.8780160451489156, 0.0, 0.3911873011764202, 1.0, 0.9999988134518258, 0.07016372470917658, 1.0, 0.0, 0.821092379489913, 1.0, 0.0, 1.0, 0.01060913563644361, 0.0, 0.08782341831730514, 0.905993897033159, 0.00019107756198430008, 1.0, 0.16271967037316998]
GUROBI solution time: 6.765515089035034




